n = 10; 

m= 10; 

																							
11	2	36	30	89	10	88	22	31	9
83	93	84	96	90	83	74	72	93	71
14	21	15	10	85	46	42	18	36	2
19	82	12	70	6	64	3	4	29	43
55	46	68	15	55	74	42	40	88	68
67	66	66	32	8	30	92	40	13	79
98	79	44	90	22	72	84	42	46	72
30	63	88	79	44	54	12	15	3	89
53	28	88	10	32	38	25	24	90	7
14	21	15	10	85	46	42	18	36	2
 


	 












 
 


 

 
